135 134 133 132 131 130 129 128 127 126 125 124 69 68 70 71 72 65 66 67 64 63 61 60 59 58 57 81 80 79 62 78 77 76 75 74 73 119 118 120 121 122 123 117 116 115 114 112 113 161 160 159 156 155 154 164 166 167 163 162 168 169 171 170 172 111 110 109 108 173 174 175 176 177 178 187 188 540 538 539 537 536 535 534 487 486 485 484 483 482 481 480 479 478 477 476 475 567 566 565 564 563 562 561 560 549 548 545 546 547 544 543 541 542 107 106 105 104 103 102 100 101 551 550 559 558 557 556 555 554 553 552 99 98 96 95 97 94 89 88 87 90 93 92 85 86 82 83 56 55 53 54 52 51 84 50 91 45 46 49 48 47 44 43 42 39 41 40 38 37 36 35 34 33 32 30 31 29 28 27 26 25 24 21 22 23 12 13 11 10 9 7 8 17 18 16 15 14 19 20 568 569 570 474 473 472 471 495 494 524 525 493 492 491 490 526 523 521 522 514 515 516 517 520 518 519 497 496 470 469 468 467 466 465 464 463 462 461 459 460 571 573 572 6 5 0 4 3 2 1 458 457 456 455 454 438 437 436 435 434 433 432 430 429 428 427 426 425 424 423 422 421 420 416 415 414 413 417 419 418 410 411 412 356 355 353 352 351 350 347 348 349 354 357 358 359 360 361 362 363 364 346 345 344 343 342 330 331 332 340 341 339 338 337 336 333 335 334 283 284 285 286 287 280 281 282 279 278 277 276 288 289 290 275 274 273 292 291 294 295 296 293 270 268 269 272 271 267 297 321 320 319 318 317 316 314 315 374 375 376 377 378 379 380 381 390 389 388 391 392 393 394 395 396 371 372 373 322 323 324 325 326 327 328 329 366 367 365 368 369 370 398 397 399 400 401 402 403 404 405 406 407 408 409 384 383 385 387 386 382 431 445 444 443 439 442 446 447 448 449 441 440 453 452 499 500 501 498 502 503 504 505 308 309 310 311 451 450 312 313 305 306 304 307 303 301 302 508 507 506 509 510 511 513 512 527 528 529 489 488 533 532 531 530 233 231 230 229 228 227 186 182 179 180 181 183 185 184 193 192 191 190 189 226 225 232 234 235 236 237 240 238 239 243 244 242 241 300 299 298 266 265 264 263 262 261 260 259 258 257 256 255 253 254 252 251 250 249 248 245 247 246 223 224 222 221 220 219 218 217 216 215 214 213 212 211 210 209 194 195 196 197 205 206 207 208 203 204 202 198 199 200 201 165 153 157 158 145 146 144 143 142 147 148 152 149 150 151 141 140 139 138 137 136